lps/t_sol_ID002M003J005_ZintTrue_minla_fav_ub0.lp
\ This file has been generated by DOcplex
\ ENCODING=ISO-8859-1
\Problem name: minla_fav

Minimize
 obj: cmax
Subject To
 c1: x_1_0 - x_0_0 >= 1
 c2: x_2_0 - x_1_0 >= 3
 c3: x_0_1 - x_1_1 >= 8
 c4: x_2_1 - x_0_1 >= 5
 c5: x_2_2 - x_0_2 >= 5
 c6: x_1_2 - x_2_2 >= 4
 c7: x_0_3 - x_2_3 >= 4
 c8: x_1_3 - x_0_3 >= 10
 c9: x_2_4 - x_1_4 >= 8
 c10: x_0_4 - x_2_4 >= 3
 c11: x_0_0 - x_0_1 + 84 z_0_0_1 >= 5
 c12: x_0_1 - x_0_0 - 84 z_0_0_1 >= -83
 c13: x_0_0 - x_0_2 + 84 z_0_0_2 >= 5
 c14: x_0_2 - x_0_0 - 84 z_0_0_2 >= -83
 c15: x_0_0 - x_0_3 + 84 z_0_0_3 >= 10
 c16: x_0_3 - x_0_0 - 84 z_0_0_3 >= -83
 c17: x_0_0 - x_0_4 + 84 z_0_0_4 >= 7
 c18: x_0_4 - x_0_0 - 84 z_0_0_4 >= -83
 c19: x_0_1 - x_0_2 + 84 z_0_1_2 >= 5
 c20: x_0_2 - x_0_1 - 84 z_0_1_2 >= -79
 c21: x_0_1 - x_0_3 + 84 z_0_1_3 >= 10
 c22: x_0_3 - x_0_1 - 84 z_0_1_3 >= -79
 c23: x_0_1 - x_0_4 + 84 z_0_1_4 >= 7
 c24: x_0_4 - x_0_1 - 84 z_0_1_4 >= -79
 c25: x_0_2 - x_0_3 + 84 z_0_2_3 >= 10
 c26: x_0_3 - x_0_2 - 84 z_0_2_3 >= -79
 c27: x_0_2 - x_0_4 + 84 z_0_2_4 >= 7
 c28: x_0_4 - x_0_2 - 84 z_0_2_4 >= -79
 c29: x_0_3 - x_0_4 + 84 z_0_3_4 >= 7
 c30: x_0_4 - x_0_3 - 84 z_0_3_4 >= -74
 c31: x_1_0 - x_1_1 + 84 z_1_0_1 >= 8
 c32: x_1_1 - x_1_0 - 84 z_1_0_1 >= -81
 c33: x_1_0 - x_1_2 + 84 z_1_0_2 >= 8
 c34: x_1_2 - x_1_0 - 84 z_1_0_2 >= -81
 c35: x_1_0 - x_1_3 + 84 z_1_0_3 >= 6
 c36: x_1_3 - x_1_0 - 84 z_1_0_3 >= -81
 c37: x_1_0 - x_1_4 + 84 z_1_0_4 >= 8
 c38: x_1_4 - x_1_0 - 84 z_1_0_4 >= -81
 c39: x_1_1 - x_1_2 + 84 z_1_1_2 >= 8
 c40: x_1_2 - x_1_1 - 84 z_1_1_2 >= -76
 c41: x_1_1 - x_1_3 + 84 z_1_1_3 >= 6
 c42: x_1_3 - x_1_1 - 84 z_1_1_3 >= -76
 c43: x_1_1 - x_1_4 + 84 z_1_1_4 >= 8
 c44: x_1_4 - x_1_1 - 84 z_1_1_4 >= -76
 c45: x_1_2 - x_1_3 + 84 z_1_2_3 >= 6
 c46: x_1_3 - x_1_2 - 84 z_1_2_3 >= -76
 c47: x_1_2 - x_1_4 + 84 z_1_2_4 >= 8
 c48: x_1_4 - x_1_2 - 84 z_1_2_4 >= -76
 c49: x_1_3 - x_1_4 + 84 z_1_3_4 >= 8
 c50: x_1_4 - x_1_3 - 84 z_1_3_4 >= -78
 c51: x_2_0 - x_2_1 + 84 z_2_0_1 >= 10
 c52: x_2_1 - x_2_0 - 84 z_2_0_1 >= -82
 c53: x_2_0 - x_2_2 + 84 z_2_0_2 >= 4
 c54: x_2_2 - x_2_0 - 84 z_2_0_2 >= -82
 c55: x_2_0 - x_2_3 + 84 z_2_0_3 >= 4
 c56: x_2_3 - x_2_0 - 84 z_2_0_3 >= -82
 c57: x_2_0 - x_2_4 + 84 z_2_0_4 >= 3
 c58: x_2_4 - x_2_0 - 84 z_2_0_4 >= -82
 c59: x_2_1 - x_2_2 + 84 z_2_1_2 >= 4
 c60: x_2_2 - x_2_1 - 84 z_2_1_2 >= -74
 c61: x_2_1 - x_2_3 + 84 z_2_1_3 >= 4
 c62: x_2_3 - x_2_1 - 84 z_2_1_3 >= -74
 c63: x_2_1 - x_2_4 + 84 z_2_1_4 >= 3
 c64: x_2_4 - x_2_1 - 84 z_2_1_4 >= -74
 c65: x_2_2 - x_2_3 + 84 z_2_2_3 >= 4
 c66: x_2_3 - x_2_2 - 84 z_2_2_3 >= -80
 c67: x_2_2 - x_2_4 + 84 z_2_2_4 >= 3
 c68: x_2_4 - x_2_2 - 84 z_2_2_4 >= -80
 c69: x_2_3 - x_2_4 + 84 z_2_3_4 >= 3
 c70: x_2_4 - x_2_3 - 84 z_2_3_4 >= -80
 c71: cmax - x_2_0 >= 2
 c72: cmax - x_2_1 >= 10
 c73: cmax - x_1_2 >= 8
 c74: cmax - x_1_3 >= 6
 c75: cmax - x_0_4 >= 7

Lazy Constraints
 l1: x_0_0 + 5 z_0_0_1 + 5 z_0_0_2 + 10 z_0_0_3 + 7 z_0_0_4 >= 27
 l2: x_0_1 - z_0_0_1 + 5 z_0_1_2 + 10 z_0_1_3 + 7 z_0_1_4 >= 22
 l3: x_0_2 - z_0_0_2 - 5 z_0_1_2 + 10 z_0_2_3 + 7 z_0_2_4 >= 17
 l4: x_0_3 - z_0_0_3 - 5 z_0_1_3 - 5 z_0_2_3 + 7 z_0_3_4 >= 7
 l5: x_0_4 - z_0_0_4 - 5 z_0_1_4 - 5 z_0_2_4 - 10 z_0_3_4 >= 0
 l6: x_1_0 + 8 z_1_0_1 + 8 z_1_0_2 + 6 z_1_0_3 + 8 z_1_0_4 >= 30
 l7: x_1_1 - 3 z_1_0_1 + 8 z_1_1_2 + 6 z_1_1_3 + 8 z_1_1_4 >= 22
 l8: x_1_2 - 3 z_1_0_2 - 8 z_1_1_2 + 6 z_1_2_3 + 8 z_1_2_4 >= 14
 l9: x_1_3 - 3 z_1_0_3 - 8 z_1_1_3 - 8 z_1_2_3 + 8 z_1_3_4 >= 8
 l10: x_1_4 - 3 z_1_0_4 - 8 z_1_1_4 - 8 z_1_2_4 - 6 z_1_3_4 >= 0
 l11: x_2_0 + 10 z_2_0_1 + 4 z_2_0_2 + 4 z_2_0_3 + 3 z_2_0_4 >= 21
 l12: x_2_1 - 2 z_2_0_1 + 4 z_2_1_2 + 4 z_2_1_3 + 3 z_2_1_4 >= 11
 l13: x_2_2 - 2 z_2_0_2 - 10 z_2_1_2 + 4 z_2_2_3 + 3 z_2_2_4 >= 7
 l14: x_2_3 - 2 z_2_0_3 - 10 z_2_1_3 - 4 z_2_2_3 + 3 z_2_3_4 >= 3
 l15: x_2_4 - 2 z_2_0_4 - 10 z_2_1_4 - 4 z_2_2_4 - 4 z_2_3_4 >= 0
 l16: x_0_1 - z_0_0_1 >= 0
 l17: x_0_0 + 13 z_0_0_1 >= 13
 l18: x_0_2 - z_0_0_2 >= 0
 l19: x_0_0 + 5 z_0_0_2 >= 5
 l20: x_0_2 - 13 z_0_1_2 >= 0
 l21: x_0_1 + 5 z_0_1_2 >= 5
 l22: x_0_3 - z_0_0_3 >= 0
 l23: x_0_0 + 14 z_0_0_3 >= 14
 l24: x_0_3 - 13 z_0_1_3 >= 0
 l25: x_0_1 + 14 z_0_1_3 >= 14
 l26: x_0_3 - 5 z_0_2_3 >= 0
 l27: x_0_2 + 14 z_0_2_3 >= 14
 l28: x_0_4 - z_0_0_4 >= 0
 l29: x_0_0 + 18 z_0_0_4 >= 18
 l30: x_0_4 - 13 z_0_1_4 >= 0
 l31: x_0_1 + 18 z_0_1_4 >= 18
 l32: x_0_4 - 5 z_0_2_4 >= 0
 l33: x_0_2 + 18 z_0_2_4 >= 18
 l34: x_0_4 - 14 z_0_3_4 >= 0
 l35: x_0_3 + 18 z_0_3_4 >= 18
 l36: x_1_1 - 4 z_1_0_1 >= 0
 l37: x_1_0 + 8 z_1_0_1 >= 8
 l38: x_1_2 - 4 z_1_0_2 >= 0
 l39: x_1_0 + 17 z_1_0_2 >= 17
 l40: x_1_2 - 8 z_1_1_2 >= 0
 l41: x_1_1 + 17 z_1_1_2 >= 17
 l42: x_1_3 - 4 z_1_0_3 >= 0
 l43: x_1_0 + 20 z_1_0_3 >= 20
 l44: x_1_3 - 8 z_1_1_3 >= 0
 l45: x_1_1 + 20 z_1_1_3 >= 20
 l46: x_1_3 - 17 z_1_2_3 >= 0
 l47: x_1_2 + 20 z_1_2_3 >= 20
 l48: x_1_4 - 4 z_1_0_4 >= 0
 l49: x_1_0 + 8 z_1_0_4 >= 8
 l50: x_1_4 - 8 z_1_1_4 >= 0
 l51: x_1_1 + 8 z_1_1_4 >= 8
 l52: x_1_4 - 17 z_1_2_4 >= 0
 l53: x_1_2 + 8 z_1_2_4 >= 8
 l54: x_1_4 - 20 z_1_3_4 >= 0
 l55: x_1_3 + 8 z_1_3_4 >= 8
 l56: x_2_1 - 6 z_2_0_1 >= 0
 l57: x_2_0 + 23 z_2_0_1 >= 23
 l58: x_2_2 - 6 z_2_0_2 >= 0
 l59: x_2_0 + 9 z_2_0_2 >= 9
 l60: x_2_2 - 23 z_2_1_2 >= 0
 l61: x_2_1 + 9 z_2_1_2 >= 9
 l62: x_2_3 - 6 z_2_0_3 >= 0
 l63: x_2_0 + 4 z_2_0_3 >= 4
 l64: x_2_3 - 23 z_2_1_3 >= 0
 l65: x_2_1 + 4 z_2_1_3 >= 4
 l66: x_2_3 - 9 z_2_2_3 >= 0
 l67: x_2_2 + 4 z_2_2_3 >= 4
 l68: x_2_4 - 6 z_2_0_4 >= 0
 l69: x_2_0 + 11 z_2_0_4 >= 11
 l70: x_2_4 - 23 z_2_1_4 >= 0
 l71: x_2_1 + 11 z_2_1_4 >= 11
 l72: x_2_4 - 9 z_2_2_4 >= 0
 l73: x_2_2 + 11 z_2_2_4 >= 11
 l74: x_2_4 - 4 z_2_3_4 >= 0
 l75: x_2_3 + 11 z_2_3_4 >= 11
 l76: cmax - x_0_0 - 15 z_0_0_1 >= 1
 l77: cmax - x_0_1 + 6 z_0_0_1 >= 11
 l78: cmax - x_0_0 - 17 z_0_0_2 >= 1
 l79: cmax - x_0_2 + 6 z_0_0_2 >= 11
 l80: cmax - x_0_0 - 16 z_0_0_3 >= 1
 l81: cmax - x_0_3 + 6 z_0_0_3 >= 16
 l82: cmax - x_0_0 - 7 z_0_0_4 >= 1
 l83: cmax - x_0_4 + 6 z_0_0_4 >= 13
 l84: cmax - x_0_1 - 17 z_0_1_2 >= 5
 l85: cmax - x_0_2 + 15 z_0_1_2 >= 20
 l86: cmax - x_0_1 - 16 z_0_1_3 >= 5
 l87: cmax - x_0_3 + 15 z_0_1_3 >= 25
 l88: cmax - x_0_1 - 7 z_0_1_4 >= 5
 l89: cmax - x_0_4 + 15 z_0_1_4 >= 22
 l90: cmax - x_0_2 - 16 z_0_2_3 >= 5
 l91: cmax - x_0_3 + 17 z_0_2_3 >= 27
 l92: cmax - x_0_2 - 7 z_0_2_4 >= 5
 l93: cmax - x_0_4 + 17 z_0_2_4 >= 24
 l94: cmax - x_0_3 - 7 z_0_3_4 >= 10
 l95: cmax - x_0_4 + 16 z_0_3_4 >= 23
 l96: cmax - x_1_0 - 23 z_1_0_1 >= 3
 l97: cmax - x_1_1 + 5 z_1_0_1 >= 13
 l98: cmax - x_1_0 - 8 z_1_0_2 >= 3
 l99: cmax - x_1_2 + 5 z_1_0_2 >= 13
 l100: cmax - x_1_0 - 6 z_1_0_3 >= 3
 l101: cmax - x_1_3 + 5 z_1_0_3 >= 11
 l102: cmax - x_1_0 - 18 z_1_0_4 >= 3
 l103: cmax - x_1_4 + 5 z_1_0_4 >= 13
 l104: cmax - x_1_1 - 8 z_1_1_2 >= 8
 l105: cmax - x_1_2 + 23 z_1_1_2 >= 31
 l106: cmax - x_1_1 - 6 z_1_1_3 >= 8
 l107: cmax - x_1_3 + 23 z_1_1_3 >= 29
 l108: cmax - x_1_1 - 18 z_1_1_4 >= 8
 l109: cmax - x_1_4 + 23 z_1_1_4 >= 31
 l110: cmax - x_1_2 - 6 z_1_2_3 >= 8
 l111: cmax - x_1_3 + 8 z_1_2_3 >= 14
 l112: cmax - x_1_2 - 18 z_1_2_4 >= 8
 l113: cmax - x_1_4 + 8 z_1_2_4 >= 16
 l114: cmax - x_1_3 - 18 z_1_3_4 >= 6
 l115: cmax - x_1_4 + 6 z_1_3_4 >= 14
 l116: cmax - x_2_0 - 10 z_2_0_1 >= 2
 l117: cmax - x_2_1 + 2 z_2_0_1 >= 12
 l118: cmax - x_2_0 - 12 z_2_0_2 >= 2
 l119: cmax - x_2_2 + 2 z_2_0_2 >= 6
 l120: cmax - x_2_0 - 20 z_2_0_3 >= 2
 l121: cmax - x_2_3 + 2 z_2_0_3 >= 6
 l122: cmax - x_2_0 - 10 z_2_0_4 >= 2
 l123: cmax - x_2_4 + 2 z_2_0_4 >= 5
 l124: cmax - x_2_1 - 12 z_2_1_2 >= 10
 l125: cmax - x_2_2 + 10 z_2_1_2 >= 14
 l126: cmax - x_2_1 - 20 z_2_1_3 >= 10
 l127: cmax - x_2_3 + 10 z_2_1_3 >= 14
 l128: cmax - x_2_1 - 10 z_2_1_4 >= 10
 l129: cmax - x_2_4 + 10 z_2_1_4 >= 13
 l130: cmax - x_2_2 - 20 z_2_2_3 >= 4
 l131: cmax - x_2_3 + 12 z_2_2_3 >= 16
 l132: cmax - x_2_2 - 10 z_2_2_4 >= 4
 l133: cmax - x_2_4 + 12 z_2_2_4 >= 15
 l134: cmax - x_2_3 - 10 z_2_3_4 >= 4
 l135: cmax - x_2_4 + 20 z_2_3_4 >= 23
 l136: cmax - x_0_0 >= 6
 l137: cmax - x_0_1 >= 15
 l138: cmax - x_0_2 >= 17
 l139: cmax - x_0_3 >= 16
 l140: cmax - x_0_4 >= 7
 l141: cmax - x_1_0 >= 5
 l142: cmax - x_1_1 >= 23
 l143: cmax - x_1_2 >= 8
 l144: cmax - x_1_3 >= 6
 l145: cmax - x_1_4 >= 18
 l146: cmax - x_2_0 >= 2
 l147: cmax - x_2_1 >= 10
 l148: cmax - x_2_2 >= 12
 l149: cmax - x_2_3 >= 20
 l150: cmax - x_2_4 >= 10
 l151: z_0_0_1 - z_0_0_2 + z_0_1_2 <= 1
 l152: - z_0_0_1 - z_0_1_2 + z_0_0_2 <= 0
 l153: z_0_0_1 - z_0_0_3 + z_0_1_3 <= 1
 l154: - z_0_0_1 - z_0_1_3 + z_0_0_3 <= 0
 l155: z_0_0_1 - z_0_0_4 + z_0_1_4 <= 1
 l156: - z_0_0_1 - z_0_1_4 + z_0_0_4 <= 0
 l157: - z_0_0_1 + z_0_0_2 - z_0_1_2 <= 0
 l158: - z_0_0_2 + z_0_1_2 + z_0_0_1 <= 1
 l159: z_0_0_2 - z_0_0_3 + z_0_2_3 <= 1
 l160: - z_0_0_2 - z_0_2_3 + z_0_0_3 <= 0
 l161: z_0_0_2 - z_0_0_4 + z_0_2_4 <= 1
 l162: - z_0_0_2 - z_0_2_4 + z_0_0_4 <= 0
 l163: - z_0_0_1 + z_0_0_3 - z_0_1_3 <= 0
 l164: - z_0_0_3 + z_0_1_3 + z_0_0_1 <= 1
 l165: - z_0_0_2 + z_0_0_3 - z_0_2_3 <= 0
 l166: - z_0_0_3 + z_0_2_3 + z_0_0_2 <= 1
 l167: z_0_0_3 - z_0_0_4 + z_0_3_4 <= 1
 l168: - z_0_0_3 - z_0_3_4 + z_0_0_4 <= 0
 l169: - z_0_0_1 + z_0_0_4 - z_0_1_4 <= 0
 l170: - z_0_0_4 + z_0_1_4 + z_0_0_1 <= 1
 l171: - z_0_0_2 + z_0_0_4 - z_0_2_4 <= 0
 l172: - z_0_0_4 + z_0_2_4 + z_0_0_2 <= 1
 l173: - z_0_0_3 + z_0_0_4 - z_0_3_4 <= 0
 l174: - z_0_0_4 + z_0_3_4 + z_0_0_3 <= 1
 l175: z_0_0_1 + z_0_1_2 - z_0_0_2 <= 1
 l176: z_0_0_2 - z_0_1_2 - z_0_0_1 <= 0
 l177: z_0_1_2 - z_0_1_3 + z_0_2_3 <= 1
 l178: - z_0_1_2 - z_0_2_3 + z_0_1_3 <= 0
 l179: z_0_1_2 - z_0_1_4 + z_0_2_4 <= 1
 l180: - z_0_1_2 - z_0_2_4 + z_0_1_4 <= 0
 l181: z_0_0_1 + z_0_1_3 - z_0_0_3 <= 1
 l182: z_0_0_3 - z_0_1_3 - z_0_0_1 <= 0
 l183: - z_0_1_2 + z_0_1_3 - z_0_2_3 <= 0
 l184: - z_0_1_3 + z_0_2_3 + z_0_1_2 <= 1
 l185: z_0_1_3 - z_0_1_4 + z_0_3_4 <= 1
 l186: - z_0_1_3 - z_0_3_4 + z_0_1_4 <= 0
 l187: z_0_0_1 + z_0_1_4 - z_0_0_4 <= 1
 l188: z_0_0_4 - z_0_1_4 - z_0_0_1 <= 0
 l189: - z_0_1_2 + z_0_1_4 - z_0_2_4 <= 0
 l190: - z_0_1_4 + z_0_2_4 + z_0_1_2 <= 1
 l191: - z_0_1_3 + z_0_1_4 - z_0_3_4 <= 0
 l192: - z_0_1_4 + z_0_3_4 + z_0_1_3 <= 1
 l193: z_0_0_2 + z_0_2_3 - z_0_0_3 <= 1
 l194: z_0_0_3 - z_0_2_3 - z_0_0_2 <= 0
 l195: z_0_1_2 + z_0_2_3 - z_0_1_3 <= 1
 l196: z_0_1_3 - z_0_2_3 - z_0_1_2 <= 0
 l197: z_0_2_3 - z_0_2_4 + z_0_3_4 <= 1
 l198: - z_0_2_3 - z_0_3_4 + z_0_2_4 <= 0
 l199: z_0_0_2 + z_0_2_4 - z_0_0_4 <= 1
 l200: z_0_0_4 - z_0_2_4 - z_0_0_2 <= 0
 l201: z_0_1_2 + z_0_2_4 - z_0_1_4 <= 1
 l202: z_0_1_4 - z_0_2_4 - z_0_1_2 <= 0
 l203: - z_0_2_3 + z_0_2_4 - z_0_3_4 <= 0
 l204: - z_0_2_4 + z_0_3_4 + z_0_2_3 <= 1
 l205: z_0_0_3 + z_0_3_4 - z_0_0_4 <= 1
 l206: z_0_0_4 - z_0_3_4 - z_0_0_3 <= 0
 l207: z_0_1_3 + z_0_3_4 - z_0_1_4 <= 1
 l208: z_0_1_4 - z_0_3_4 - z_0_1_3 <= 0
 l209: z_0_2_3 + z_0_3_4 - z_0_2_4 <= 1
 l210: z_0_2_4 - z_0_3_4 - z_0_2_3 <= 0
 l211: z_1_0_1 - z_1_0_2 + z_1_1_2 <= 1
 l212: - z_1_0_1 - z_1_1_2 + z_1_0_2 <= 0
 l213: z_1_0_1 - z_1_0_3 + z_1_1_3 <= 1
 l214: - z_1_0_1 - z_1_1_3 + z_1_0_3 <= 0
 l215: z_1_0_1 - z_1_0_4 + z_1_1_4 <= 1
 l216: - z_1_0_1 - z_1_1_4 + z_1_0_4 <= 0
 l217: - z_1_0_1 + z_1_0_2 - z_1_1_2 <= 0
 l218: - z_1_0_2 + z_1_1_2 + z_1_0_1 <= 1
 l219: z_1_0_2 - z_1_0_3 + z_1_2_3 <= 1
 l220: - z_1_0_2 - z_1_2_3 + z_1_0_3 <= 0
 l221: z_1_0_2 - z_1_0_4 + z_1_2_4 <= 1
 l222: - z_1_0_2 - z_1_2_4 + z_1_0_4 <= 0
 l223: - z_1_0_1 + z_1_0_3 - z_1_1_3 <= 0
 l224: - z_1_0_3 + z_1_1_3 + z_1_0_1 <= 1
 l225: - z_1_0_2 + z_1_0_3 - z_1_2_3 <= 0
 l226: - z_1_0_3 + z_1_2_3 + z_1_0_2 <= 1
 l227: z_1_0_3 - z_1_0_4 + z_1_3_4 <= 1
 l228: - z_1_0_3 - z_1_3_4 + z_1_0_4 <= 0
 l229: - z_1_0_1 + z_1_0_4 - z_1_1_4 <= 0
 l230: - z_1_0_4 + z_1_1_4 + z_1_0_1 <= 1
 l231: - z_1_0_2 + z_1_0_4 - z_1_2_4 <= 0
 l232: - z_1_0_4 + z_1_2_4 + z_1_0_2 <= 1
 l233: - z_1_0_3 + z_1_0_4 - z_1_3_4 <= 0
 l234: - z_1_0_4 + z_1_3_4 + z_1_0_3 <= 1
 l235: z_1_0_1 + z_1_1_2 - z_1_0_2 <= 1
 l236: z_1_0_2 - z_1_1_2 - z_1_0_1 <= 0
 l237: z_1_1_2 - z_1_1_3 + z_1_2_3 <= 1
 l238: - z_1_1_2 - z_1_2_3 + z_1_1_3 <= 0
 l239: z_1_1_2 - z_1_1_4 + z_1_2_4 <= 1
 l240: - z_1_1_2 - z_1_2_4 + z_1_1_4 <= 0
 l241: z_1_0_1 + z_1_1_3 - z_1_0_3 <= 1
 l242: z_1_0_3 - z_1_1_3 - z_1_0_1 <= 0
 l243: - z_1_1_2 + z_1_1_3 - z_1_2_3 <= 0
 l244: - z_1_1_3 + z_1_2_3 + z_1_1_2 <= 1
 l245: z_1_1_3 - z_1_1_4 + z_1_3_4 <= 1
 l246: - z_1_1_3 - z_1_3_4 + z_1_1_4 <= 0
 l247: z_1_0_1 + z_1_1_4 - z_1_0_4 <= 1
 l248: z_1_0_4 - z_1_1_4 - z_1_0_1 <= 0
 l249: - z_1_1_2 + z_1_1_4 - z_1_2_4 <= 0
 l250: - z_1_1_4 + z_1_2_4 + z_1_1_2 <= 1
 l251: - z_1_1_3 + z_1_1_4 - z_1_3_4 <= 0
 l252: - z_1_1_4 + z_1_3_4 + z_1_1_3 <= 1
 l253: z_1_0_2 + z_1_2_3 - z_1_0_3 <= 1
 l254: z_1_0_3 - z_1_2_3 - z_1_0_2 <= 0
 l255: z_1_1_2 + z_1_2_3 - z_1_1_3 <= 1
 l256: z_1_1_3 - z_1_2_3 - z_1_1_2 <= 0
 l257: z_1_2_3 - z_1_2_4 + z_1_3_4 <= 1
 l258: - z_1_2_3 - z_1_3_4 + z_1_2_4 <= 0
 l259: z_1_0_2 + z_1_2_4 - z_1_0_4 <= 1
 l260: z_1_0_4 - z_1_2_4 - z_1_0_2 <= 0
 l261: z_1_1_2 + z_1_2_4 - z_1_1_4 <= 1
 l262: z_1_1_4 - z_1_2_4 - z_1_1_2 <= 0
 l263: - z_1_2_3 + z_1_2_4 - z_1_3_4 <= 0
 l264: - z_1_2_4 + z_1_3_4 + z_1_2_3 <= 1
 l265: z_1_0_3 + z_1_3_4 - z_1_0_4 <= 1
 l266: z_1_0_4 - z_1_3_4 - z_1_0_3 <= 0
 l267: z_1_1_3 + z_1_3_4 - z_1_1_4 <= 1
 l268: z_1_1_4 - z_1_3_4 - z_1_1_3 <= 0
 l269: z_1_2_3 + z_1_3_4 - z_1_2_4 <= 1
 l270: z_1_2_4 - z_1_3_4 - z_1_2_3 <= 0
 l271: z_2_0_1 - z_2_0_2 + z_2_1_2 <= 1
 l272: - z_2_0_1 - z_2_1_2 + z_2_0_2 <= 0
 l273: z_2_0_1 - z_2_0_3 + z_2_1_3 <= 1
 l274: - z_2_0_1 - z_2_1_3 + z_2_0_3 <= 0
 l275: z_2_0_1 - z_2_0_4 + z_2_1_4 <= 1
 l276: - z_2_0_1 - z_2_1_4 + z_2_0_4 <= 0
 l277: - z_2_0_1 + z_2_0_2 - z_2_1_2 <= 0
 l278: - z_2_0_2 + z_2_1_2 + z_2_0_1 <= 1
 l279: z_2_0_2 - z_2_0_3 + z_2_2_3 <= 1
 l280: - z_2_0_2 - z_2_2_3 + z_2_0_3 <= 0
 l281: z_2_0_2 - z_2_0_4 + z_2_2_4 <= 1
 l282: - z_2_0_2 - z_2_2_4 + z_2_0_4 <= 0
 l283: - z_2_0_1 + z_2_0_3 - z_2_1_3 <= 0
 l284: - z_2_0_3 + z_2_1_3 + z_2_0_1 <= 1
 l285: - z_2_0_2 + z_2_0_3 - z_2_2_3 <= 0
 l286: - z_2_0_3 + z_2_2_3 + z_2_0_2 <= 1
 l287: z_2_0_3 - z_2_0_4 + z_2_3_4 <= 1
 l288: - z_2_0_3 - z_2_3_4 + z_2_0_4 <= 0
 l289: - z_2_0_1 + z_2_0_4 - z_2_1_4 <= 0
 l290: - z_2_0_4 + z_2_1_4 + z_2_0_1 <= 1
 l291: - z_2_0_2 + z_2_0_4 - z_2_2_4 <= 0
 l292: - z_2_0_4 + z_2_2_4 + z_2_0_2 <= 1
 l293: - z_2_0_3 + z_2_0_4 - z_2_3_4 <= 0
 l294: - z_2_0_4 + z_2_3_4 + z_2_0_3 <= 1
 l295: z_2_0_1 + z_2_1_2 - z_2_0_2 <= 1
 l296: z_2_0_2 - z_2_1_2 - z_2_0_1 <= 0
 l297: z_2_1_2 - z_2_1_3 + z_2_2_3 <= 1
 l298: - z_2_1_2 - z_2_2_3 + z_2_1_3 <= 0
 l299: z_2_1_2 - z_2_1_4 + z_2_2_4 <= 1
 l300: - z_2_1_2 - z_2_2_4 + z_2_1_4 <= 0
 l301: z_2_0_1 + z_2_1_3 - z_2_0_3 <= 1
 l302: z_2_0_3 - z_2_1_3 - z_2_0_1 <= 0
 l303: - z_2_1_2 + z_2_1_3 - z_2_2_3 <= 0
 l304: - z_2_1_3 + z_2_2_3 + z_2_1_2 <= 1
 l305: z_2_1_3 - z_2_1_4 + z_2_3_4 <= 1
 l306: - z_2_1_3 - z_2_3_4 + z_2_1_4 <= 0
 l307: z_2_0_1 + z_2_1_4 - z_2_0_4 <= 1
 l308: z_2_0_4 - z_2_1_4 - z_2_0_1 <= 0
 l309: - z_2_1_2 + z_2_1_4 - z_2_2_4 <= 0
 l310: - z_2_1_4 + z_2_2_4 + z_2_1_2 <= 1
 l311: - z_2_1_3 + z_2_1_4 - z_2_3_4 <= 0
 l312: - z_2_1_4 + z_2_3_4 + z_2_1_3 <= 1
 l313: z_2_0_2 + z_2_2_3 - z_2_0_3 <= 1
 l314: z_2_0_3 - z_2_2_3 - z_2_0_2 <= 0
 l315: z_2_1_2 + z_2_2_3 - z_2_1_3 <= 1
 l316: z_2_1_3 - z_2_2_3 - z_2_1_2 <= 0
 l317: z_2_2_3 - z_2_2_4 + z_2_3_4 <= 1
 l318: - z_2_2_3 - z_2_3_4 + z_2_2_4 <= 0
 l319: z_2_0_2 + z_2_2_4 - z_2_0_4 <= 1
 l320: z_2_0_4 - z_2_2_4 - z_2_0_2 <= 0
 l321: z_2_1_2 + z_2_2_4 - z_2_1_4 <= 1
 l322: z_2_1_4 - z_2_2_4 - z_2_1_2 <= 0
 l323: - z_2_2_3 + z_2_2_4 - z_2_3_4 <= 0
 l324: - z_2_2_4 + z_2_3_4 + z_2_2_3 <= 1
 l325: z_2_0_3 + z_2_3_4 - z_2_0_4 <= 1
 l326: z_2_0_4 - z_2_3_4 - z_2_0_3 <= 0
 l327: z_2_1_3 + z_2_3_4 - z_2_1_4 <= 1
 l328: z_2_1_4 - z_2_3_4 - z_2_1_3 <= 0
 l329: z_2_2_3 + z_2_3_4 - z_2_2_4 <= 1
 l330: z_2_2_4 - z_2_3_4 - z_2_2_3 <= 0

Bounds
 0 <= z_0_0_1 <= 1
 0 <= z_0_0_2 <= 1
 0 <= z_0_0_3 <= 1
 0 <= z_0_0_4 <= 1
 0 <= z_0_1_2 <= 1
 0 <= z_0_1_3 <= 1
 0 <= z_0_1_4 <= 1
 0 <= z_0_2_3 <= 1
 0 <= z_0_2_4 <= 1
 0 <= z_0_3_4 <= 1
 0 <= z_1_0_1 <= 1
 0 <= z_1_0_2 <= 1
 0 <= z_1_0_3 <= 1
 0 <= z_1_0_4 <= 1
 0 <= z_1_1_2 <= 1
 0 <= z_1_1_3 <= 1
 0 <= z_1_1_4 <= 1
 0 <= z_1_2_3 <= 1
 0 <= z_1_2_4 <= 1
 0 <= z_1_3_4 <= 1
 0 <= z_2_0_1 <= 1
 0 <= z_2_0_2 <= 1
 0 <= z_2_0_3 <= 1
 0 <= z_2_0_4 <= 1
 0 <= z_2_1_2 <= 1
 0 <= z_2_1_3 <= 1
 0 <= z_2_1_4 <= 1
 0 <= z_2_2_3 <= 1
 0 <= z_2_2_4 <= 1
 0 <= z_2_3_4 <= 1
 23 <= cmax

Binaries
 z_0_0_1 z_0_0_2 z_0_0_3 z_0_0_4 z_0_1_2 z_0_1_3 z_0_1_4 z_0_2_3 z_0_2_4 z_0_3_4
 z_1_0_1 z_1_0_2 z_1_0_3 z_1_0_4 z_1_1_2 z_1_1_3 z_1_1_4 z_1_2_3 z_1_2_4 z_1_3_4
 z_2_0_1 z_2_0_2 z_2_0_3 z_2_0_4 z_2_1_2 z_2_1_3 z_2_1_4 z_2_2_3 z_2_2_4 z_2_3_4
End
