logs/t_sol_ID002M003J005_ZintTrue_minla_fav_ub0.txt
Version identifier: 12.10.0.0 | 2019-11-26 | 843d4de
CPXPARAM_Read_DataCheck                          1
CPXPARAM_RandomSeed                              201903125
CPXPARAM_TimeLimit                               7200
CPXPARAM_Output_IntSolFilePrefix                 "solucoes/t_sol_ID002M003J005_ZintTrue_minla_fav_ub0/sol"
Lazy constraint(s) or lazy constraint/branch callback is present.
    Disabling dual reductions (CPX_PARAM_REDUCE) in presolve.
    Disabling non-linear reductions (CPX_PARAM_PRELINEAR) in presolve.
    Disabling presolve reductions that prevent crushing forms.
Tried aggregator 1 time.
Reduced MIP has 75 rows, 46 columns, and 210 nonzeros.
Reduced MIP has 30 binaries, 0 generals, 0 SOSs, and 0 indicators.
Presolve time = 0.00 sec. (0.06 ticks)
Probing time = 0.00 sec. (0.01 ticks)
Tried aggregator 1 time.
Reduced MIP has 75 rows, 46 columns, and 210 nonzeros.
Reduced MIP has 30 binaries, 0 generals, 0 SOSs, and 0 indicators.
Presolve time = 0.00 sec. (0.05 ticks)
Probing time = 0.00 sec. (0.01 ticks)
Problem contains 330 lazy constraints.
MIP emphasis: balance optimality and feasibility.
MIP search method: dynamic search.
Parallel mode: deterministic, using up to 8 threads.
Root relaxation solution time = 0.00 sec. (0.10 ticks)

        Nodes                                         Cuts/
   Node  Left     Objective  IInf  Best Integer    Best Bound    ItCnt     Gap

      0     0       23.0000    11                     23.0000       22         
      0     0       24.5000    11                     Cuts: 8       40         
*     0+    0                           37.0000       24.5000            33.78%
New incumbent written to file 'solucoes/t_sol_ID002M003J005_ZintTrue_minla_fav_ub0/sol-00001.sol'.
      0     0       26.1042    11       37.0000      Cuts: 17       55   29.45%
*     0+    0                           33.0000       26.1042            20.90%
New incumbent written to file 'solucoes/t_sol_ID002M003J005_ZintTrue_minla_fav_ub0/sol-00002.sol'.
      0     0       26.9906    11       33.0000      Cuts: 16       63   18.21%
      0     0       27.4789    11       33.0000       Cuts: 8       69   16.73%
      0     0       29.0000    11       33.0000       Cuts: 7       78   12.12%
      0     0       29.0000    11       33.0000      Cuts: 17       83   12.12%
      0     0       29.0000    11       33.0000       Cuts: 2       85   12.12%
      0     2       29.0000     8       33.0000       29.0000       85   12.12%
Elapsed time = 0.01 sec. (4.18 ticks, tree = 0.02 MB, solutions = 2)

Implied bound cuts applied:  2
Flow cuts applied:  5
Mixed integer rounding cuts applied:  8
Gomory fractional cuts applied:  2

Root node processing (before b&c):
  Real time             =    0.01 sec. (4.14 ticks)
Parallel b&c, 8 threads:
  Real time             =    0.01 sec. (1.22 ticks)
  Sync time (average)   =    0.00 sec.
  Wait time (average)   =    0.00 sec.
                          ------------
Total (root+branch&cut) =    0.01 sec. (5.36 ticks)
